Name: Digx
Courses: 3
Rooms: 2
Days: 12
Periods_per_day: 8
Curricula: 2
Constraints: 1

COURSES:
ABAP_Objects S.Weemaels 65 1 5
Java_EE K.V.Ryckegem 2 2 5	
Networking B.Drabbé 1 1 5

ROOMS:
A	90
B	110

CURRICULA:
DigX3_Bizit    2  ABAP_Objects Java_EE
DigX3_Network  2  Java_EE Networking

UNAVAILABILITY_CONSTRAINTS:
Java_EE 0 0

END.
